/*********************************************
 * OPL 20.1.0.0 Data
 * Author: utente
 * Creation Date: 8 nov 2022 at 18:14:40
 *********************************************/

 sedi = {"RC", "CS", "CZ", "VV"};
 
 budget = 10000;
 
 min_trasf = 5;
 
 c = [[0, 150, 400, 300], [150, 0, 250, 200], [400, 250, 0, 200], [300, 200, 200, 0]];